% File represents an instance of a Composite Structure problem to be solved by a CP framework
% Created on 2025-03-26 10:41:58.783
T = 58;
n = 36;
m = 60;
edges = [(1, 2),
(7, 8),
(14, 13),
(19, 20),
(25, 26),
(32, 31),
(3, 2),
(9, 8),
(15, 14),
(21, 20),
(27, 26),
(33, 32),
(4, 3),
(9, 10),
(15, 16),
(21, 22),
(27, 28),
(33, 34),
(4, 5),
(10, 11),
(16, 17),
(22, 23),
(29, 28),
(35, 34),
(6, 5),
(12, 11),
(18, 17),
(24, 23),
(30, 29),
(35, 36),
(7, 1),
(7, 13),
(19, 13),
(19, 25),
(25, 31),
(8, 2),
(14, 8),
(14, 20),
(20, 26),
(32, 26),
(9, 3),
(15, 9),
(21, 15),
(21, 27),
(33, 27),
(4, 10),
(16, 10),
(22, 16),
(22, 28),
(34, 28),
(5, 11),
(17, 11),
(23, 17),
(29, 23),
(35, 29),
(6, 12),
(12, 18),
(24, 18),
(30, 24),
(30, 36)];
counts = [|20, 4, 20, 4,
|18, 4, 18, 2,
|18, 6, 18, 4,
|18, 10, 18, 4,
|18, 10, 18, 2,
|18, 10, 18, 8,
|22, 6, 22, 4,
|20, 6, 20, 2,
|20, 6, 20, 4,
|18, 6, 18, 4,
|18, 4, 18, 2,
|18, 6, 18, 6,
|22, 4, 22, 2,
|22, 6, 22, 2,
|22, 6, 22, 4,
|20, 6, 20, 4,
|18, 4, 18, 4,
|18, 6, 18, 4,
|22, 6, 22, 4,
|22, 4, 22, 2,
|22, 8, 22, 4,
|20, 8, 20, 4,
|20, 4, 20, 4,
|20, 6, 20, 4,
|20, 4, 20, 4,
|20, 4, 20, 2,
|22, 6, 22, 2,
|20, 6, 20, 2,
|22, 6, 22, 4,
|22, 6, 22, 6,
|20, 2, 20, 2,
|20, 8, 20, 2,
|22, 10, 22, 2,
|22, 8, 22, 2,
|22, 8, 22, 6,
|22, 6, 22, 4|];
